32	0

0	4	2	5	4	3
5	2	6	7
7	2	8	9
2	2	6	7
5	2	6	7
5	2	8	9
7	2	8	10
8	1	11
6	2	10	11
6	2	12	14
6	2	12	14
2	1	13
6	2	15	16
7	2	15	16
1	1	17
1	1	17
1	2	18	19
6	3	20	21	22
8	2	21	22
10	2	23	24
9	2	23	24
10	2	23	25
10	1	26
9	1	25
1	1	26
6	1	27
9	2	28	29
9	1	30
8	2	30	31
6	1	32
6	1	32
0	0
